WARNING: for repeatability, setting FPU to use double precision
============================[ Problem Statistics ]=============================
|                                                                             |
|  Number of variables:         39805                                         |
|  Number of clauses:            1585                                         |
|  Parse time:                   0.01 s                                       |
|                                                                             |
c ============================[ Search Statistics ]==============================
c | Conflicts |          ORIGINAL         |          LEARNT          | Progress |
c |           |    Vars  Clauses Literals |    Limit  Clauses Lit/Cl |          |
c ===============================================================================
c Switched to VSIDS.
c Switched to LRB.
c Switched to VSIDS.
c Switched to LRB.
c Switched to VSIDS.
c Switched to LRB.
c Switched to VSIDS.
c Switched to LRB.
c Switched to VSIDS.
CAREFUL: the definition is falsified in conflict 2633077 at DL 11 (has happened 1 times)
c Switched to LRB.
c Switched to VSIDS.
c Switched to LRB.
c Switched to VSIDS.
c Switched to LRB.
c Switched to VSIDS.
c ===============================================================================
restarts                  : 5382
conflicts                 : 4180698        (4759 /sec)
decisions                 : 41582783       (0.00 % random) (47332 /sec)
propagations              : 1031769187     (1174415 /sec)
conflict literals         : 86181560       (32.43 % deleted)

conflicts w/ DIP found    : 2602793        (62.26 % of conflicts)
conflicts w/ dangerous DIP: 2              (0.00 % of conflicts)
conflicts w/ DIP-learning : 77557          (1.86 % of conflicts)
decisions on ext vars     : 2161346        (5.20 % of decisions)
total ext vars            : 4279        
tried delete ext vars     : 49          
deleted ext vars          : 49          
max ext vars              : 4230        

Memory used               : 258.00 MB
CPU time                  : 878.539 s
DIP computation time      : 24.6269 s (2.80 % of total time)
ER_sel time               : 3.91505 s
ER_add time               : 0.015033 s
ER_delC time              : 0 s
ER_delV time              : 0.000858 s
ER_sub time               : 5.35195 s
ER_stat time              : 0 s

UNSATISFIABLE
